RLT04
Position Depot: Center
Horizon for Depot: Large
Position of customers: Random
Distribution of the demand: Small
Width of time windows: Tight
Distribution of the service: Small

VEHICLE 
NUMBER 	 CAPACITY 
 7 	 	 51 
 
CUSTOMER
CUST NO. 	 XCOORD.  	 YCOORD. 	 DEMAND 	 READY TIME 	 DUE DATE 	 SERVICE TIME 
 0 	 	 500 	 	 500 	 	 0 	 	 0 	 	 4979 	 	 0 
  1 	 	 634 	 	 652 	 	 10 	 	 4610 	 	 4774 	 	 55 
  2 	 	 625 	 	 510 	 	 9 	 	 2715 	 	 2915 	 	 93 
  3 	 	 44 	 	 192 	 	 6 	 	 526 	 	 605 	 	 52 
  4 	 	 120 	 	 568 	 	 9 	 	 2448 	 	 2549 	 	 60 
  5 	 	 546 	 	 153 	 	 6 	 	 1744 	 	 1816 	 	 82 
  6 	 	 361 	 	 919 	 	 10 	 	 4528 	 	 4689 	 	 67 
  7 	 	 629 	 	 137 	 	 7 	 	 4675 	 	 4788 	 	 54 
  8 	 	 876 	 	 610 	 	 7 	 	 437 	 	 492 	 	 77 
  9 	 	 625 	 	 988 	 	 7 	 	 3809 	 	 3967 	 	 77 
  10 	 	 860 	 	 828 	 	 5 	 	 1465 	 	 1569 	 	 99 
  11 	 	 695 	 	 34 	 	 10 	 	 3439 	 	 3595 	 	 72 
  12 	 	 963 	 	 363 	 	 9 	 	 1166 	 	 1261 	 	 100 
  13 	 	 231 	 	 234 	 	 5 	 	 2960 	 	 3027 	 	 78 
  14 	 	 329 	 	 833 	 	 6 	 	 1736 	 	 1851 	 	 59 
  15 	 	 707 	 	 912 	 	 10 	 	 4193 	 	 4340 	 	 56 
  16 	 	 489 	 	 701 	 	 10 	 	 51 	 	 221 	 	 69 
  17 	 	 268 	 	 795 	 	 10 	 	 2333 	 	 2436 	 	 58 
  18 	 	 706 	 	 651 	 	 8 	 	 212 	 	 359 	 	 79 
  19 	 	 548 	 	 885 	 	 5 	 	 1024 	 	 1133 	 	 81 
  20 	 	 660 	 	 101 	 	 7 	 	 3521 	 	 3622 	 	 83 
  21 	 	 341 	 	 100 	 	 6 	 	 1898 	 	 2073 	 	 86 
  22 	 	 118 	 	 182 	 	 8 	 	 2856 	 	 3016 	 	 75 
  23 	 	 566 	 	 995 	 	 8 	 	 397 	 	 549 	 	 59 
  24 	 	 435 	 	 130 	 	 5 	 	 2320 	 	 2469 	 	 89 
  25 	 	 440 	 	 653 	 	 5 	 	 1591 	 	 1710 	 	 80 
  26 	 	 609 	 	 432 	 	 7 	 	 4128 	 	 4205 	 	 70 
  27 	 	 801 	 	 966 	 	 6 	 	 4503 	 	 4690 	 	 100 
  28 	 	 265 	 	 966 	 	 10 	 	 381 	 	 574 	 	 92 
  29 	 	 750 	 	 932 	 	 5 	 	 2954 	 	 3120 	 	 66 
  30 	 	 768 	 	 96 	 	 7 	 	 1102 	 	 1173 	 	 76 
  31 	 	 722 	 	 994 	 	 8 	 	 423 	 	 595 	 	 87 
  32 	 	 736 	 	 133 	 	 9 	 	 3118 	 	 3293 	 	 99 
  33 	 	 238 	 	 521 	 	 5 	 	 3047 	 	 3112 	 	 76 
  34 	 	 615 	 	 86 	 	 6 	 	 306 	 	 472 	 	 55 
  35 	 	 300 	 	 625 	 	 5 	 	 2817 	 	 2877 	 	 54 
  36 	 	 74 	 	 847 	 	 5 	 	 4725 	 	 4853 	 	 72 
  37 	 	 315 	 	 92 	 	 9 	 	 3784 	 	 3925 	 	 70 
  38 	 	 876 	 	 787 	 	 6 	 	 2817 	 	 3001 	 	 65 
  39 	 	 335 	 	 617 	 	 6 	 	 1981 	 	 2086 	 	 69 
  40 	 	 979 	 	 313 	 	 9 	 	 2580 	 	 2707 	 	 87 
  41 	 	 4 	 	 672 	 	 8 	 	 2016 	 	 2124 	 	 59 
  42 	 	 995 	 	 247 	 	 6 	 	 634 	 	 750 	 	 75 
  43 	 	 207 	 	 141 	 	 6 	 	 4497 	 	 4565 	 	 70 
  44 	 	 395 	 	 930 	 	 10 	 	 1683 	 	 1773 	 	 52 
  45 	 	 456 	 	 221 	 	 8 	 	 857 	 	 986 	 	 99 
  46 	 	 225 	 	 738 	 	 10 	 	 2283 	 	 2463 	 	 100 
  47 	 	 667 	 	 456 	 	 7 	 	 649 	 	 716 	 	 54 
  48 	 	 843 	 	 236 	 	 5 	 	 4205 	 	 4373 	 	 95 
  49 	 	 847 	 	 569 	 	 8 	 	 297 	 	 389 	 	 79 
  50 	 	 443 	 	 553 	 	 5 	 	 1547 	 	 1600 	 	 65 
 